c description: Graph pigeonhole principle formula on fast_gnp_random_graph(10,25,0.9)
c generator: CNFgen (0.9.0)
c copyright: (C) 2012-2020 Massimo Lauria <massimo.lauria@uniroma1.it>
c url: https://massimolauria.net/cnfgen
c
p cnf 227 937
1 2 3 4 5 6 7 8 9 10 11 12 13 14 15 16 17 18 19 20 21 22 0
23 24 25 26 27 28 29 30 31 32 33 34 35 36 37 38 39 40 41 42 43 0
44 45 46 47 48 49 50 51 52 53 54 55 56 57 58 59 60 61 62 63 64 65 66 67 0
68 69 70 71 72 73 74 75 76 77 78 79 80 81 82 83 84 85 86 87 88 89 0
90 91 92 93 94 95 96 97 98 99 100 101 102 103 104 105 106 107 108 109 110 0
111 112 113 114 115 116 117 118 119 120 121 122 123 124 125 126 127 128 129 130 131 132 133 134 135 0
136 137 138 139 140 141 142 143 144 145 146 147 148 149 150 151 152 153 154 155 156 0
157 158 159 160 161 162 163 164 165 166 167 168 169 170 171 172 173 174 175 176 177 178 0
179 180 181 182 183 184 185 186 187 188 189 190 191 192 193 194 195 196 197 198 199 200 201 202 203 0
204 205 206 207 208 209 210 211 212 213 214 215 216 217 218 219 220 221 222 223 224 225 226 227 0
-1 -23 0
-1 -44 0
-1 -68 0
-1 -111 0
-1 -136 0
-1 -157 0
-1 -179 0
-1 -204 0
-23 -44 0
-23 -68 0
-23 -111 0
-23 -136 0
-23 -157 0
-23 -179 0
-23 -204 0
-44 -68 0
-44 -111 0
-44 -136 0
-44 -157 0
-44 -179 0
-44 -204 0
-68 -111 0
-68 -136 0
-68 -157 0
-68 -179 0
-68 -204 0
-111 -136 0
-111 -157 0
-111 -179 0
-111 -204 0
-136 -157 0
-136 -179 0
-136 -204 0
-157 -179 0
-157 -204 0
-179 -204 0
-2 -24 0
-2 -45 0
-2 -69 0
-2 -90 0
-2 -112 0
-2 -137 0
-2 -180 0
-2 -205 0
-24 -45 0
-24 -69 0
-24 -90 0
-24 -112 0
-24 -137 0
-24 -180 0
-24 -205 0
-45 -69 0
-45 -90 0
-45 -112 0
-45 -137 0
-45 -180 0
-45 -205 0
-69 -90 0
-69 -112 0
-69 -137 0
-69 -180 0
-69 -205 0
-90 -112 0
-90 -137 0
-90 -180 0
-90 -205 0
-112 -137 0
-112 -180 0
-112 -205 0
-137 -180 0
-137 -205 0
-180 -205 0
-25 -46 0
-25 -70 0
-25 -91 0
-25 -113 0
-25 -138 0
-25 -158 0
-25 -181 0
-25 -206 0
-46 -70 0
-46 -91 0
-46 -113 0
-46 -138 0
-46 -158 0
-46 -181 0
-46 -206 0
-70 -91 0
-70 -113 0
-70 -138 0
-70 -158 0
-70 -181 0
-70 -206 0
-91 -113 0
-91 -138 0
-91 -158 0
-91 -181 0
-91 -206 0
-113 -138 0
-113 -158 0
-113 -181 0
-113 -206 0
-138 -158 0
-138 -181 0
-138 -206 0
-158 -181 0
-158 -206 0
-181 -206 0
-3 -26 0
-3 -47 0
-3 -71 0
-3 -92 0
-3 -114 0
-3 -139 0
-3 -159 0
-3 -182 0
-3 -207 0
-26 -47 0
-26 -71 0
-26 -92 0
-26 -114 0
-26 -139 0
-26 -159 0
-26 -182 0
-26 -207 0
-47 -71 0
-47 -92 0
-47 -114 0
-47 -139 0
-47 -159 0
-47 -182 0
-47 -207 0
-71 -92 0
-71 -114 0
-71 -139 0
-71 -159 0
-71 -182 0
-71 -207 0
-92 -114 0
-92 -139 0
-92 -159 0
-92 -182 0
-92 -207 0
-114 -139 0
-114 -159 0
-114 -182 0
-114 -207 0
-139 -159 0
-139 -182 0
-139 -207 0
-159 -182 0
-159 -207 0
-182 -207 0
-4 -48 0
-4 -72 0
-4 -93 0
-4 -115 0
-4 -140 0
-4 -160 0
-4 -183 0
-4 -208 0
-48 -72 0
-48 -93 0
-48 -115 0
-48 -140 0
-48 -160 0
-48 -183 0
-48 -208 0
-72 -93 0
-72 -115 0
-72 -140 0
-72 -160 0
-72 -183 0
-72 -208 0
-93 -115 0
-93 -140 0
-93 -160 0
-93 -183 0
-93 -208 0
-115 -140 0
-115 -160 0
-115 -183 0
-115 -208 0
-140 -160 0
-140 -183 0
-140 -208 0
-160 -183 0
-160 -208 0
-183 -208 0
-49 -73 0
-49 -94 0
-49 -116 0
-49 -161 0
-49 -184 0
-49 -209 0
-73 -94 0
-73 -116 0
-73 -161 0
-73 -184 0
-73 -209 0
-94 -116 0
-94 -161 0
-94 -184 0
-94 -209 0
-116 -161 0
-116 -184 0
-116 -209 0
-161 -184 0
-161 -209 0
-184 -209 0
-5 -27 0
-5 -50 0
-5 -74 0
-5 -95 0
-5 -117 0
-5 -141 0
-5 -162 0
-5 -185 0
-5 -210 0
-27 -50 0
-27 -74 0
-27 -95 0
-27 -117 0
-27 -141 0
-27 -162 0
-27 -185 0
-27 -210 0
-50 -74 0
-50 -95 0
-50 -117 0
-50 -141 0
-50 -162 0
-50 -185 0
-50 -210 0
-74 -95 0
-74 -117 0
-74 -141 0
-74 -162 0
-74 -185 0
-74 -210 0
-95 -117 0
-95 -141 0
-95 -162 0
-95 -185 0
-95 -210 0
-117 -141 0
-117 -162 0
-117 -185 0
-117 -210 0
-141 -162 0
-141 -185 0
-141 -210 0
-162 -185 0
-162 -210 0
-185 -210 0
-6 -28 0
-6 -51 0
-6 -75 0
-6 -118 0
-6 -142 0
-6 -163 0
-6 -186 0
-28 -51 0
-28 -75 0
-28 -118 0
-28 -142 0
-28 -163 0
-28 -186 0
-51 -75 0
-51 -118 0
-51 -142 0
-51 -163 0
-51 -186 0
-75 -118 0
-75 -142 0
-75 -163 0
-75 -186 0
-118 -142 0
-118 -163 0
-118 -186 0
-142 -163 0
-142 -186 0
-163 -186 0
-7 -52 0
-7 -96 0
-7 -119 0
-7 -143 0
-7 -164 0
-7 -187 0
-7 -211 0
-52 -96 0
-52 -119 0
-52 -143 0
-52 -164 0
-52 -187 0
-52 -211 0
-96 -119 0
-96 -143 0
-96 -164 0
-96 -187 0
-96 -211 0
-119 -143 0
-119 -164 0
-119 -187 0
-119 -211 0
-143 -164 0
-143 -187 0
-143 -211 0
-164 -187 0
-164 -211 0
-187 -211 0
-8 -29 0
-8 -53 0
-8 -97 0
-8 -120 0
-8 -144 0
-8 -165 0
-8 -188 0
-8 -212 0
-29 -53 0
-29 -97 0
-29 -120 0
-29 -144 0
-29 -165 0
-29 -188 0
-29 -212 0
-53 -97 0
-53 -120 0
-53 -144 0
-53 -165 0
-53 -188 0
-53 -212 0
-97 -120 0
-97 -144 0
-97 -165 0
-97 -188 0
-97 -212 0
-120 -144 0
-120 -165 0
-120 -188 0
-120 -212 0
-144 -165 0
-144 -188 0
-144 -212 0
-165 -188 0
-165 -212 0
-188 -212 0
-9 -30 0
-9 -54 0
-9 -76 0
-9 -98 0
-9 -121 0
-9 -145 0
-9 -166 0
-9 -189 0
-9 -213 0
-30 -54 0
-30 -76 0
-30 -98 0
-30 -121 0
-30 -145 0
-30 -166 0
-30 -189 0
-30 -213 0
-54 -76 0
-54 -98 0
-54 -121 0
-54 -145 0
-54 -166 0
-54 -189 0
-54 -213 0
-76 -98 0
-76 -121 0
-76 -145 0
-76 -166 0
-76 -189 0
-76 -213 0
-98 -121 0
-98 -145 0
-98 -166 0
-98 -189 0
-98 -213 0
-121 -145 0
-121 -166 0
-121 -189 0
-121 -213 0
-145 -166 0
-145 -189 0
-145 -213 0
-166 -189 0
-166 -213 0
-189 -213 0
-10 -77 0
-10 -99 0
-10 -122 0
-10 -146 0
-10 -167 0
-10 -190 0
-10 -214 0
-77 -99 0
-77 -122 0
-77 -146 0
-77 -167 0
-77 -190 0
-77 -214 0
-99 -122 0
-99 -146 0
-99 -167 0
-99 -190 0
-99 -214 0
-122 -146 0
-122 -167 0
-122 -190 0
-122 -214 0
-146 -167 0
-146 -190 0
-146 -214 0
-167 -190 0
-167 -214 0
-190 -214 0
-11 -31 0
-11 -55 0
-11 -100 0
-11 -123 0
-11 -147 0
-11 -191 0
-11 -215 0
-31 -55 0
-31 -100 0
-31 -123 0
-31 -147 0
-31 -191 0
-31 -215 0
-55 -100 0
-55 -123 0
-55 -147 0
-55 -191 0
-55 -215 0
-100 -123 0
-100 -147 0
-100 -191 0
-100 -215 0
-123 -147 0
-123 -191 0
-123 -215 0
-147 -191 0
-147 -215 0
-191 -215 0
-12 -32 0
-12 -56 0
-12 -78 0
-12 -101 0
-12 -124 0
-12 -148 0
-12 -168 0
-12 -192 0
-12 -216 0
-32 -56 0
-32 -78 0
-32 -101 0
-32 -124 0
-32 -148 0
-32 -168 0
-32 -192 0
-32 -216 0
-56 -78 0
-56 -101 0
-56 -124 0
-56 -148 0
-56 -168 0
-56 -192 0
-56 -216 0
-78 -101 0
-78 -124 0
-78 -148 0
-78 -168 0
-78 -192 0
-78 -216 0
-101 -124 0
-101 -148 0
-101 -168 0
-101 -192 0
-101 -216 0
-124 -148 0
-124 -168 0
-124 -192 0
-124 -216 0
-148 -168 0
-148 -192 0
-148 -216 0
-168 -192 0
-168 -216 0
-192 -216 0
-13 -33 0
-13 -57 0
-13 -79 0
-13 -102 0
-13 -125 0
-13 -169 0
-13 -193 0
-13 -217 0
-33 -57 0
-33 -79 0
-33 -102 0
-33 -125 0
-33 -169 0
-33 -193 0
-33 -217 0
-57 -79 0
-57 -102 0
-57 -125 0
-57 -169 0
-57 -193 0
-57 -217 0
-79 -102 0
-79 -125 0
-79 -169 0
-79 -193 0
-79 -217 0
-102 -125 0
-102 -169 0
-102 -193 0
-102 -217 0
-125 -169 0
-125 -193 0
-125 -217 0
-169 -193 0
-169 -217 0
-193 -217 0
-14 -34 0
-14 -58 0
-14 -80 0
-14 -103 0
-14 -126 0
-14 -170 0
-14 -194 0
-14 -218 0
-34 -58 0
-34 -80 0
-34 -103 0
-34 -126 0
-34 -170 0
-34 -194 0
-34 -218 0
-58 -80 0
-58 -103 0
-58 -126 0
-58 -170 0
-58 -194 0
-58 -218 0
-80 -103 0
-80 -126 0
-80 -170 0
-80 -194 0
-80 -218 0
-103 -126 0
-103 -170 0
-103 -194 0
-103 -218 0
-126 -170 0
-126 -194 0
-126 -218 0
-170 -194 0
-170 -218 0
-194 -218 0
-15 -35 0
-15 -59 0
-15 -81 0
-15 -104 0
-15 -127 0
-15 -149 0
-15 -171 0
-15 -195 0
-15 -219 0
-35 -59 0
-35 -81 0
-35 -104 0
-35 -127 0
-35 -149 0
-35 -171 0
-35 -195 0
-35 -219 0
-59 -81 0
-59 -104 0
-59 -127 0
-59 -149 0
-59 -171 0
-59 -195 0
-59 -219 0
-81 -104 0
-81 -127 0
-81 -149 0
-81 -171 0
-81 -195 0
-81 -219 0
-104 -127 0
-104 -149 0
-104 -171 0
-104 -195 0
-104 -219 0
-127 -149 0
-127 -171 0
-127 -195 0
-127 -219 0
-149 -171 0
-149 -195 0
-149 -219 0
-171 -195 0
-171 -219 0
-195 -219 0
-16 -36 0
-16 -60 0
-16 -82 0
-16 -105 0
-16 -128 0
-16 -150 0
-16 -172 0
-16 -196 0
-16 -220 0
-36 -60 0
-36 -82 0
-36 -105 0
-36 -128 0
-36 -150 0
-36 -172 0
-36 -196 0
-36 -220 0
-60 -82 0
-60 -105 0
-60 -128 0
-60 -150 0
-60 -172 0
-60 -196 0
-60 -220 0
-82 -105 0
-82 -128 0
-82 -150 0
-82 -172 0
-82 -196 0
-82 -220 0
-105 -128 0
-105 -150 0
-105 -172 0
-105 -196 0
-105 -220 0
-128 -150 0
-128 -172 0
-128 -196 0
-128 -220 0
-150 -172 0
-150 -196 0
-150 -220 0
-172 -196 0
-172 -220 0
-196 -220 0
-17 -37 0
-17 -61 0
-17 -83 0
-17 -106 0
-17 -129 0
-17 -151 0
-17 -173 0
-17 -197 0
-17 -221 0
-37 -61 0
-37 -83 0
-37 -106 0
-37 -129 0
-37 -151 0
-37 -173 0
-37 -197 0
-37 -221 0
-61 -83 0
-61 -106 0
-61 -129 0
-61 -151 0
-61 -173 0
-61 -197 0
-61 -221 0
-83 -106 0
-83 -129 0
-83 -151 0
-83 -173 0
-83 -197 0
-83 -221 0
-106 -129 0
-106 -151 0
-106 -173 0
-106 -197 0
-106 -221 0
-129 -151 0
-129 -173 0
-129 -197 0
-129 -221 0
-151 -173 0
-151 -197 0
-151 -221 0
-173 -197 0
-173 -221 0
-197 -221 0
-18 -38 0
-18 -62 0
-18 -84 0
-18 -107 0
-18 -130 0
-18 -152 0
-18 -174 0
-18 -198 0
-18 -222 0
-38 -62 0
-38 -84 0
-38 -107 0
-38 -130 0
-38 -152 0
-38 -174 0
-38 -198 0
-38 -222 0
-62 -84 0
-62 -107 0
-62 -130 0
-62 -152 0
-62 -174 0
-62 -198 0
-62 -222 0
-84 -107 0
-84 -130 0
-84 -152 0
-84 -174 0
-84 -198 0
-84 -222 0
-107 -130 0
-107 -152 0
-107 -174 0
-107 -198 0
-107 -222 0
-130 -152 0
-130 -174 0
-130 -198 0
-130 -222 0
-152 -174 0
-152 -198 0
-152 -222 0
-174 -198 0
-174 -222 0
-198 -222 0
-19 -39 0
-19 -63 0
-19 -85 0
-19 -131 0
-19 -153 0
-19 -199 0
-19 -223 0
-39 -63 0
-39 -85 0
-39 -131 0
-39 -153 0
-39 -199 0
-39 -223 0
-63 -85 0
-63 -131 0
-63 -153 0
-63 -199 0
-63 -223 0
-85 -131 0
-85 -153 0
-85 -199 0
-85 -223 0
-131 -153 0
-131 -199 0
-131 -223 0
-153 -199 0
-153 -223 0
-199 -223 0
-40 -64 0
-40 -86 0
-40 -132 0
-40 -154 0
-40 -175 0
-40 -200 0
-40 -224 0
-64 -86 0
-64 -132 0
-64 -154 0
-64 -175 0
-64 -200 0
-64 -224 0
-86 -132 0
-86 -154 0
-86 -175 0
-86 -200 0
-86 -224 0
-132 -154 0
-132 -175 0
-132 -200 0
-132 -224 0
-154 -175 0
-154 -200 0
-154 -224 0
-175 -200 0
-175 -224 0
-200 -224 0
-20 -41 0
-20 -65 0
-20 -87 0
-20 -108 0
-20 -133 0
-20 -176 0
-20 -201 0
-20 -225 0
-41 -65 0
-41 -87 0
-41 -108 0
-41 -133 0
-41 -176 0
-41 -201 0
-41 -225 0
-65 -87 0
-65 -108 0
-65 -133 0
-65 -176 0
-65 -201 0
-65 -225 0
-87 -108 0
-87 -133 0
-87 -176 0
-87 -201 0
-87 -225 0
-108 -133 0
-108 -176 0
-108 -201 0
-108 -225 0
-133 -176 0
-133 -201 0
-133 -225 0
-176 -201 0
-176 -225 0
-201 -225 0
-21 -42 0
-21 -66 0
-21 -88 0
-21 -109 0
-21 -134 0
-21 -155 0
-21 -177 0
-21 -202 0
-21 -226 0
-42 -66 0
-42 -88 0
-42 -109 0
-42 -134 0
-42 -155 0
-42 -177 0
-42 -202 0
-42 -226 0
-66 -88 0
-66 -109 0
-66 -134 0
-66 -155 0
-66 -177 0
-66 -202 0
-66 -226 0
-88 -109 0
-88 -134 0
-88 -155 0
-88 -177 0
-88 -202 0
-88 -226 0
-109 -134 0
-109 -155 0
-109 -177 0
-109 -202 0
-109 -226 0
-134 -155 0
-134 -177 0
-134 -202 0
-134 -226 0
-155 -177 0
-155 -202 0
-155 -226 0
-177 -202 0
-177 -226 0
-202 -226 0
-22 -43 0
-22 -67 0
-22 -89 0
-22 -110 0
-22 -135 0
-22 -156 0
-22 -178 0
-22 -203 0
-22 -227 0
-43 -67 0
-43 -89 0
-43 -110 0
-43 -135 0
-43 -156 0
-43 -178 0
-43 -203 0
-43 -227 0
-67 -89 0
-67 -110 0
-67 -135 0
-67 -156 0
-67 -178 0
-67 -203 0
-67 -227 0
-89 -110 0
-89 -135 0
-89 -156 0
-89 -178 0
-89 -203 0
-89 -227 0
-110 -135 0
-110 -156 0
-110 -178 0
-110 -203 0
-110 -227 0
-135 -156 0
-135 -178 0
-135 -203 0
-135 -227 0
-156 -178 0
-156 -203 0
-156 -227 0
-178 -203 0
-178 -227 0
-203 -227 0